p cnf 42 121
a 41 17 0
e 1 2 3 4 5 6 7 8 9 10 11 12 13 14 15 16 18 19 20 21 22 23 24 25 26 27 28 29 30 31 32 33 34 35 36 37 38 39 40 42 0
3 -1 0
3 2 0
1 -2 -3 0
3 -4 -5 0
-3 4 -5 0
3 4 5 0
-3 -4 5 0
-7 1 0
-7 -6 0
-1 6 7 0
8 7 0
8 7 0
-7 -8 0
5 -8 -9 0
-5 8 -9 0
5 8 9 0
-5 -8 9 0
-7 -6 -11 0
7 6 -11 0
-7 6 11 0
7 -6 11 0
12 10 0
12 -11 0
-10 11 -12 0
-7 12 -13 0
7 -12 -13 0
-7 -12 13 0
7 12 13 0
1 6 -14 0
-1 -6 -14 0
1 -6 14 0
-1 6 14 0
-15 -1 0
-15 14 0
1 -14 15 0
4 15 -16 0
-4 -15 -16 0
4 -15 16 0
-4 15 16 0
-17 -11 0
-17 -6 0
11 6 17 0
-16 17 -18 0
16 -17 -18 0
-16 -17 18 0
16 17 18 0
20 18 0
20 -19 0
-18 19 -20 0
21 18 -22 0
-21 -18 -22 0
21 -18 22 0
-21 18 22 0
-24 4 0
-24 2 0
-4 -2 24 0
-23 24 -25 0
23 -24 -25 0
-23 -24 25 0
23 24 25 0
22 -25 -26 0
-22 25 -26 0
22 25 26 0
-22 -25 26 0
-27 20 0
-27 26 0
-20 -26 27 0
-28 23 0
-28 -14 0
-23 14 28 0
-29 27 0
-29 28 0
-27 -28 29 0
13 -29 -30 0
-13 29 -30 0
13 29 30 0
-13 -29 30 0
31 -21 0
31 18 0
21 -18 -31 0
-33 32 0
-33 10 0
-32 -10 33 0
-34 25 0
-34 -15 0
-25 15 34 0
-33 -34 -35 0
33 34 -35 0
-33 34 35 0
33 -34 35 0
-37 36 0
-37 -16 0
-36 16 37 0
38 -37 0
38 4 0
37 -4 -38 0
-39 -35 0
-39 38 0
35 -38 39 0
-40 -31 0
-40 -39 0
31 39 40 0
41 -30 0
41 40 0
30 -40 -41 0
-9 -41 -42 0
9 41 -42 0
-9 41 42 0
9 -41 42 0
-24 -38 10 0
19 34 27 22 -6 0
7 33 2 -23 25 36 -18 0
34 15 -25 -22 -41 0
10 27 3 -24 0
39 -10 37 0
-23 5 25 0
-40 -41 -13 39 8 0
6 28 37 -31 -1 14 -4 0
22 27 -26 21 -18 -30 0
42 -19 4 -27 0
42 0
